2277,3344
2305,3343
2368,3336
2416,3327
2484,3312
2545,3290
2556,3285
2596,3264
2603,3259
2654,3222
2662,3216
2679,3201
2690,3191
2723,3156
2735,3143
2748,3128
2777,3092
2818,3039
2831,3021
2845,3001
2864,2970
2892,2916
2900,2898
2934,2815
2940,2780
2945,2728
2951,2651
2375,3334
2431,3321
2519,3299
2514,3300
2564,3277
2559,3278
2635,3235
2643,3226
2667,3203
2684,3195
2696,3171
2762,3109
2765,3101
2806,3044
2791,3061
2820,3025
2847,2987
2877,2937
2875,2938
2907,2871
2915,2849
2911,2852
2938,2783
